% ----DATA VARIABLES----

t=8;%number of attributes
k=2;%max length of the support set
n=10;%number of positive instances
m=10;%number of negative instances
c=1;%number of atMostOne Constraints

% ----OMEGAS----

omegap= [| 1, 0, 0, 0, 0, 1, 1, 0|
 0, 0, 0, 0, 0, 1, 0, 0|
 1, 0, 1, 1, 1, 1, 0, 0|
 0, 1, 1, 1, 0, 1, 0, 0|
 1, 0, 0, 0, 1, 0, 1, 1|
 0, 1, 0, 0, 1, 1, 1, 1|
 0, 0, 1, 1, 0, 1, 1, 0|
 0, 0, 1, 0, 1, 0, 0, 0|
 0, 1, 0, 0, 1, 1, 1, 0|
 0, 0, 0, 1, 0, 0, 0, 1|];

omegan= [| 1, 0, 0, 1, 0, 0, 0, 0|
 0, 0, 1, 0, 0, 0, 1, 0|
 1, 1, 1, 1, 1, 0, 1, 0|
 0, 1, 1, 0, 0, 1, 1, 0|
 0, 0, 1, 1, 0, 1, 0, 0|
 0, 0, 0, 0, 1, 0, 1, 1|
 0, 0, 0, 1, 0, 0, 1, 1|
 1, 0, 1, 0, 1, 1, 1, 0|
 1, 0, 0, 0, 1, 0, 1, 0|
 1, 0, 1, 1, 0, 0, 1, 0|];

% ----CONSTRAINS----

atMostOne=[{1}];